lps/d25_07.lp
Maximize
 obj: - z0 - z1 - z2 - z3 - z4 - z5 - z6 - z7 - z8 - z9 - z10 - z11 - z12 - z13 - z14 - z15 - z16 - z17 - z18 - z19 - z20 - z21 - z22 - z23 - z24 + 25
Subject To
 c0: x00 + x01 + x02 + x03 = 1
 c1: x10 + x11 + x12 + x13 = 1
 c2: x20 + x21 + x22 + x23 = 1
 c3: x30 + x31 + x32 + x33 = 1
 c4: x40 + x41 + x42 + x43 = 1
 c5: x50 + x51 + x52 + x53 = 1
 c6: x60 + x61 + x62 + x63 = 1
 c7: x70 + x71 + x72 + x73 = 1
 c8: x80 + x81 + x82 + x83 = 1
 c9: x90 + x91 + x92 + x93 = 1
 c10: x100 + x101 + x102 + x103 = 1
 c11: x110 + x111 + x112 + x113 = 1
 c12: x120 + x121 + x122 + x123 = 1
 c13: x130 + x131 + x132 + x133 = 1
 c14: x140 + x141 + x142 + x143 = 1
 c15: x150 + x151 + x152 + x153 = 1
 c16: x160 + x161 + x162 + x163 = 1
 c17: x170 + x171 + x172 + x173 = 1
 c18: x180 + x181 + x182 + x183 = 1
 c19: x190 + x191 + x192 + x193 = 1
 c20: x200 + x201 + x202 + x203 = 1
 c21: x210 + x211 + x212 + x213 = 1
 c22: x220 + x221 + x222 + x223 = 1
 c23: x230 + x231 + x232 + x233 = 1
 c24: x240 + x241 + x242 + x243 = 1
 c25: x00 + x22 - z0 <= 1
 c26: x00 + x23 - z0 <= 1
 c27: x00 + x70 - z0 <= 1
 c28: x00 + x71 - z0 <= 1
 c29: x00 + x72 - z0 <= 1
 c30: x00 + x73 - z0 <= 1
 c31: x00 + x90 - z0 <= 1
 c32: x00 + x91 - z0 <= 1
 c33: x00 + x121 - z0 <= 1
 c34: x00 + x122 - z0 <= 1
 c35: x00 + x130 - z0 <= 1
 c36: x00 + x131 - z0 <= 1
 c37: x00 + x161 - z0 <= 1
 c38: x00 + x162 - z0 <= 1
 c39: x00 + x223 - z0 <= 1
 c40: x00 + x243 - z0 <= 1
 c41: x01 + x22 - z0 <= 1
 c42: x01 + x71 - z0 <= 1
 c43: x01 + x72 - z0 <= 1
 c44: x01 + x91 - z0 <= 1
 c45: x01 + x131 - z0 <= 1
 c46: x01 + x190 - z0 <= 1
 c47: x01 + x222 - z0 <= 1
 c48: x01 + x223 - z0 <= 1
 c49: x01 + x242 - z0 <= 1
 c50: x01 + x243 - z0 <= 1
 c51: x02 + x10 - z0 <= 1
 c52: x02 + x11 - z0 <= 1
 c53: x02 + x72 - z0 <= 1
 c54: x02 + x91 - z0 <= 1
 c55: x02 + x92 - z0 <= 1
 c56: x02 + x100 - z0 <= 1
 c57: x02 + x101 - z0 <= 1
 c58: x02 + x131 - z0 <= 1
 c59: x02 + x132 - z0 <= 1
 c60: x02 + x190 - z0 <= 1
 c61: x02 + x193 - z0 <= 1
 c62: x03 + x10 - z0 <= 1
 c63: x03 + x72 - z0 <= 1
 c64: x03 + x73 - z0 <= 1
 c65: x03 + x90 - z0 <= 1
 c66: x03 + x91 - z0 <= 1
 c67: x03 + x92 - z0 <= 1
 c68: x03 + x93 - z0 <= 1
 c69: x03 + x100 - z0 <= 1
 c70: x03 + x122 - z0 <= 1
 c71: x03 + x130 - z0 <= 1
 c72: x03 + x131 - z0 <= 1
 c73: x03 + x132 - z0 <= 1
 c74: x03 + x133 - z0 <= 1
 c75: x03 + x162 - z0 <= 1
 c76: x10 + x02 - z1 <= 1
 c77: x10 + x03 - z1 <= 1
 c78: x10 + x60 - z1 <= 1
 c79: x10 + x92 - z1 <= 1
 c80: x10 + x100 - z1 <= 1
 c81: x10 + x101 - z1 <= 1
 c82: x10 + x102 - z1 <= 1
 c83: x10 + x103 - z1 <= 1
 c84: x10 + x131 - z1 <= 1
 c85: x10 + x132 - z1 <= 1
 c86: x10 + x190 - z1 <= 1
 c87: x10 + x193 - z1 <= 1
 c88: x11 + x02 - z1 <= 1
 c89: x11 + x60 - z1 <= 1
 c90: x11 + x61 - z1 <= 1
 c91: x11 + x101 - z1 <= 1
 c92: x11 + x102 - z1 <= 1
 c93: x11 + x190 - z1 <= 1
 c94: x11 + x191 - z1 <= 1
 c95: x11 + x192 - z1 <= 1
 c96: x11 + x193 - z1 <= 1
 c97: x12 + x60 - z1 <= 1
 c98: x12 + x61 - z1 <= 1
 c99: x12 + x62 - z1 <= 1
 c100: x12 + x63 - z1 <= 1
 c101: x12 + x102 - z1 <= 1
 c102: x12 + x192 - z1 <= 1
 c103: x12 + x193 - z1 <= 1
 c104: x13 + x60 - z1 <= 1
 c105: x13 + x63 - z1 <= 1
 c106: x13 + x102 - z1 <= 1
 c107: x13 + x103 - z1 <= 1
 c108: x13 + x132 - z1 <= 1
 c109: x13 + x193 - z1 <= 1
 c110: x20 + x70 - z2 <= 1
 c111: x20 + x180 - z2 <= 1
 c112: x20 + x183 - z2 <= 1
 c113: x20 + x200 - z2 <= 1
 c114: x20 + x203 - z2 <= 1
 c115: x21 + x70 - z2 <= 1
 c116: x21 + x71 - z2 <= 1
 c117: x21 + x180 - z2 <= 1
 c118: x21 + x181 - z2 <= 1
 c119: x21 + x182 - z2 <= 1
 c120: x21 + x183 - z2 <= 1
 c121: x21 + x200 - z2 <= 1
 c122: x21 + x201 - z2 <= 1
 c123: x21 + x202 - z2 <= 1
 c124: x21 + x203 - z2 <= 1
 c125: x21 + x220 - z2 <= 1
 c126: x21 + x223 - z2 <= 1
 c127: x21 + x230 - z2 <= 1
 c128: x21 + x233 - z2 <= 1
 c129: x21 + x240 - z2 <= 1
 c130: x21 + x243 - z2 <= 1
 c131: x22 + x00 - z2 <= 1
 c132: x22 + x01 - z2 <= 1
 c133: x22 + x70 - z2 <= 1
 c134: x22 + x71 - z2 <= 1
 c135: x22 + x72 - z2 <= 1
 c136: x22 + x73 - z2 <= 1
 c137: x22 + x121 - z2 <= 1
 c138: x22 + x161 - z2 <= 1
 c139: x22 + x182 - z2 <= 1
 c140: x22 + x183 - z2 <= 1
 c141: x22 + x202 - z2 <= 1
 c142: x22 + x203 - z2 <= 1
 c143: x22 + x223 - z2 <= 1
 c144: x22 + x233 - z2 <= 1
 c145: x22 + x243 - z2 <= 1
 c146: x23 + x00 - z2 <= 1
 c147: x23 + x70 - z2 <= 1
 c148: x23 + x73 - z2 <= 1
 c149: x23 + x120 - z2 <= 1
 c150: x23 + x121 - z2 <= 1
 c151: x23 + x160 - z2 <= 1
 c152: x23 + x161 - z2 <= 1
 c153: x23 + x183 - z2 <= 1
 c154: x23 + x203 - z2 <= 1
 c155: x30 + x50 - z3 <= 1
 c156: x30 + x51 - z3 <= 1
 c157: x30 + x52 - z3 <= 1
 c158: x30 + x53 - z3 <= 1
 c159: x30 + x170 - z3 <= 1
 c160: x30 + x173 - z3 <= 1
 c161: x31 + x51 - z3 <= 1
 c162: x31 + x52 - z3 <= 1
 c163: x31 + x170 - z3 <= 1
 c164: x31 + x171 - z3 <= 1
 c165: x31 + x172 - z3 <= 1
 c166: x31 + x173 - z3 <= 1
 c167: x32 + x52 - z3 <= 1
 c168: x32 + x172 - z3 <= 1
 c169: x32 + x173 - z3 <= 1
 c170: x32 + x210 - z3 <= 1
 c171: x32 + x211 - z3 <= 1
 c172: x33 + x52 - z3 <= 1
 c173: x33 + x53 - z3 <= 1
 c174: x33 + x173 - z3 <= 1
 c175: x33 + x210 - z3 <= 1
 c176: x40 + x93 - z4 <= 1
 c177: x40 + x133 - z4 <= 1
 c178: x40 + x150 - z4 <= 1
 c179: x40 + x151 - z4 <= 1
 c180: x41 + x92 - z4 <= 1
 c181: x41 + x93 - z4 <= 1
 c182: x41 + x100 - z4 <= 1
 c183: x41 + x103 - z4 <= 1
 c184: x41 + x132 - z4 <= 1
 c185: x41 + x133 - z4 <= 1
 c186: x41 + x151 - z4 <= 1
 c187: x42 + x103 - z4 <= 1
 c188: x42 + x110 - z4 <= 1
 c189: x42 + x151 - z4 <= 1
 c190: x42 + x152 - z4 <= 1
 c191: x43 + x150 - z4 <= 1
 c192: x43 + x151 - z4 <= 1
 c193: x43 + x152 - z4 <= 1
 c194: x43 + x153 - z4 <= 1
 c195: x50 + x30 - z5 <= 1
 c196: x50 + x170 - z5 <= 1
 c197: x51 + x30 - z5 <= 1
 c198: x51 + x31 - z5 <= 1
 c199: x51 + x170 - z5 <= 1
 c200: x51 + x171 - z5 <= 1
 c201: x52 + x30 - z5 <= 1
 c202: x52 + x31 - z5 <= 1
 c203: x52 + x32 - z5 <= 1
 c204: x52 + x33 - z5 <= 1
 c205: x52 + x170 - z5 <= 1
 c206: x52 + x171 - z5 <= 1
 c207: x52 + x172 - z5 <= 1
 c208: x52 + x173 - z5 <= 1
 c209: x53 + x30 - z5 <= 1
 c210: x53 + x33 - z5 <= 1
 c211: x53 + x170 - z5 <= 1
 c212: x53 + x173 - z5 <= 1
 c213: x60 + x10 - z6 <= 1
 c214: x60 + x11 - z6 <= 1
 c215: x60 + x12 - z6 <= 1
 c216: x60 + x13 - z6 <= 1
 c217: x60 + x92 - z6 <= 1
 c218: x60 + x100 - z6 <= 1
 c219: x60 + x101 - z6 <= 1
 c220: x60 + x102 - z6 <= 1
 c221: x60 + x103 - z6 <= 1
 c222: x60 + x192 - z6 <= 1
 c223: x60 + x193 - z6 <= 1
 c224: x61 + x11 - z6 <= 1
 c225: x61 + x12 - z6 <= 1
 c226: x61 + x101 - z6 <= 1
 c227: x61 + x102 - z6 <= 1
 c228: x61 + x192 - z6 <= 1
 c229: x62 + x12 - z6 <= 1
 c230: x62 + x102 - z6 <= 1
 c231: x62 + x111 - z6 <= 1
 c232: x63 + x12 - z6 <= 1
 c233: x63 + x13 - z6 <= 1
 c234: x63 + x102 - z6 <= 1
 c235: x63 + x103 - z6 <= 1
 c236: x63 + x110 - z6 <= 1
 c237: x63 + x111 - z6 <= 1
 c238: x70 + x00 - z7 <= 1
 c239: x70 + x20 - z7 <= 1
 c240: x70 + x21 - z7 <= 1
 c241: x70 + x22 - z7 <= 1
 c242: x70 + x23 - z7 <= 1
 c243: x70 + x120 - z7 <= 1
 c244: x70 + x121 - z7 <= 1
 c245: x70 + x160 - z7 <= 1
 c246: x70 + x161 - z7 <= 1
 c247: x70 + x182 - z7 <= 1
 c248: x70 + x183 - z7 <= 1
 c249: x70 + x203 - z7 <= 1
 c250: x70 + x233 - z7 <= 1
 c251: x70 + x240 - z7 <= 1
 c252: x70 + x243 - z7 <= 1
 c253: x71 + x00 - z7 <= 1
 c254: x71 + x01 - z7 <= 1
 c255: x71 + x21 - z7 <= 1
 c256: x71 + x22 - z7 <= 1
 c257: x71 + x121 - z7 <= 1
 c258: x71 + x161 - z7 <= 1
 c259: x71 + x182 - z7 <= 1
 c260: x71 + x202 - z7 <= 1
 c261: x71 + x203 - z7 <= 1
 c262: x71 + x223 - z7 <= 1
 c263: x71 + x232 - z7 <= 1
 c264: x71 + x233 - z7 <= 1
 c265: x71 + x240 - z7 <= 1
 c266: x71 + x241 - z7 <= 1
 c267: x71 + x242 - z7 <= 1
 c268: x71 + x243 - z7 <= 1
 c269: x72 + x00 - z7 <= 1
 c270: x72 + x01 - z7 <= 1
 c271: x72 + x02 - z7 <= 1
 c272: x72 + x03 - z7 <= 1
 c273: x72 + x22 - z7 <= 1
 c274: x72 + x90 - z7 <= 1
 c275: x72 + x91 - z7 <= 1
 c276: x72 + x121 - z7 <= 1
 c277: x72 + x122 - z7 <= 1
 c278: x72 + x131 - z7 <= 1
 c279: x72 + x161 - z7 <= 1
 c280: x72 + x162 - z7 <= 1
 c281: x72 + x190 - z7 <= 1
 c282: x72 + x242 - z7 <= 1
 c283: x72 + x243 - z7 <= 1
 c284: x73 + x00 - z7 <= 1
 c285: x73 + x03 - z7 <= 1
 c286: x73 + x22 - z7 <= 1
 c287: x73 + x23 - z7 <= 1
 c288: x73 + x90 - z7 <= 1
 c289: x73 + x120 - z7 <= 1
 c290: x73 + x121 - z7 <= 1
 c291: x73 + x122 - z7 <= 1
 c292: x73 + x123 - z7 <= 1
 c293: x73 + x130 - z7 <= 1
 c294: x73 + x131 - z7 <= 1
 c295: x73 + x160 - z7 <= 1
 c296: x73 + x161 - z7 <= 1
 c297: x73 + x162 - z7 <= 1
 c298: x73 + x163 - z7 <= 1
 c299: x73 + x243 - z7 <= 1
 c300: x80 + x141 - z8 <= 1
 c301: x80 + x211 - z8 <= 1
 c302: x80 + x212 - z8 <= 1
 c303: x82 + x231 - z8 <= 1
 c304: x83 + x141 - z8 <= 1
 c305: x83 + x142 - z8 <= 1
 c306: x83 + x181 - z8 <= 1
 c307: x83 + x201 - z8 <= 1
 c308: x83 + x212 - z8 <= 1
 c309: x83 + x230 - z8 <= 1
 c310: x83 + x231 - z8 <= 1
 c311: x90 + x00 - z9 <= 1
 c312: x90 + x03 - z9 <= 1
 c313: x90 + x72 - z9 <= 1
 c314: x90 + x73 - z9 <= 1
 c315: x90 + x100 - z9 <= 1
 c316: x90 + x121 - z9 <= 1
 c317: x90 + x122 - z9 <= 1
 c318: x90 + x130 - z9 <= 1
 c319: x90 + x131 - z9 <= 1
 c320: x90 + x161 - z9 <= 1
 c321: x90 + x162 - z9 <= 1
 c322: x91 + x00 - z9 <= 1
 c323: x91 + x01 - z9 <= 1
 c324: x91 + x02 - z9 <= 1
 c325: x91 + x03 - z9 <= 1
 c326: x91 + x72 - z9 <= 1
 c327: x91 + x100 - z9 <= 1
 c328: x91 + x101 - z9 <= 1
 c329: x91 + x131 - z9 <= 1
 c330: x91 + x190 - z9 <= 1
 c331: x92 + x02 - z9 <= 1
 c332: x92 + x03 - z9 <= 1
 c333: x92 + x10 - z9 <= 1
 c334: x92 + x41 - z9 <= 1
 c335: x92 + x60 - z9 <= 1
 c336: x92 + x100 - z9 <= 1
 c337: x92 + x101 - z9 <= 1
 c338: x92 + x102 - z9 <= 1
 c339: x92 + x103 - z9 <= 1
 c340: x92 + x131 - z9 <= 1
 c341: x92 + x132 - z9 <= 1
 c342: x92 + x190 - z9 <= 1
 c343: x92 + x193 - z9 <= 1
 c344: x93 + x03 - z9 <= 1
 c345: x93 + x40 - z9 <= 1
 c346: x93 + x41 - z9 <= 1
 c347: x93 + x100 - z9 <= 1
 c348: x93 + x103 - z9 <= 1
 c349: x93 + x122 - z9 <= 1
 c350: x93 + x130 - z9 <= 1
 c351: x93 + x131 - z9 <= 1
 c352: x93 + x132 - z9 <= 1
 c353: x93 + x133 - z9 <= 1
 c354: x93 + x151 - z9 <= 1
 c355: x93 + x162 - z9 <= 1
 c356: x100 + x02 - z10 <= 1
 c357: x100 + x03 - z10 <= 1
 c358: x100 + x10 - z10 <= 1
 c359: x100 + x41 - z10 <= 1
 c360: x100 + x60 - z10 <= 1
 c361: x100 + x90 - z10 <= 1
 c362: x100 + x91 - z10 <= 1
 c363: x100 + x92 - z10 <= 1
 c364: x100 + x93 - z10 <= 1
 c365: x100 + x131 - z10 <= 1
 c366: x100 + x132 - z10 <= 1
 c367: x100 + x190 - z10 <= 1
 c368: x100 + x193 - z10 <= 1
 c369: x101 + x02 - z10 <= 1
 c370: x101 + x10 - z10 <= 1
 c371: x101 + x11 - z10 <= 1
 c372: x101 + x60 - z10 <= 1
 c373: x101 + x61 - z10 <= 1
 c374: x101 + x91 - z10 <= 1
 c375: x101 + x92 - z10 <= 1
 c376: x101 + x190 - z10 <= 1
 c377: x101 + x191 - z10 <= 1
 c378: x101 + x192 - z10 <= 1
 c379: x101 + x193 - z10 <= 1
 c380: x102 + x10 - z10 <= 1
 c381: x102 + x11 - z10 <= 1
 c382: x102 + x12 - z10 <= 1
 c383: x102 + x13 - z10 <= 1
 c384: x102 + x60 - z10 <= 1
 c385: x102 + x61 - z10 <= 1
 c386: x102 + x62 - z10 <= 1
 c387: x102 + x63 - z10 <= 1
 c388: x102 + x92 - z10 <= 1
 c389: x102 + x192 - z10 <= 1
 c390: x102 + x193 - z10 <= 1
 c391: x103 + x10 - z10 <= 1
 c392: x103 + x13 - z10 <= 1
 c393: x103 + x41 - z10 <= 1
 c394: x103 + x42 - z10 <= 1
 c395: x103 + x60 - z10 <= 1
 c396: x103 + x63 - z10 <= 1
 c397: x103 + x92 - z10 <= 1
 c398: x103 + x93 - z10 <= 1
 c399: x103 + x132 - z10 <= 1
 c400: x103 + x193 - z10 <= 1
 c401: x110 + x42 - z11 <= 1
 c402: x110 + x63 - z11 <= 1
 c403: x111 + x62 - z11 <= 1
 c404: x111 + x63 - z11 <= 1
 c405: x120 + x23 - z12 <= 1
 c406: x120 + x70 - z12 <= 1
 c407: x120 + x73 - z12 <= 1
 c408: x120 + x130 - z12 <= 1
 c409: x120 + x160 - z12 <= 1
 c410: x120 + x163 - z12 <= 1
 c411: x121 + x00 - z12 <= 1
 c412: x121 + x22 - z12 <= 1
 c413: x121 + x23 - z12 <= 1
 c414: x121 + x70 - z12 <= 1
 c415: x121 + x71 - z12 <= 1
 c416: x121 + x72 - z12 <= 1
 c417: x121 + x73 - z12 <= 1
 c418: x121 + x90 - z12 <= 1
 c419: x121 + x130 - z12 <= 1
 c420: x121 + x131 - z12 <= 1
 c421: x121 + x160 - z12 <= 1
 c422: x121 + x161 - z12 <= 1
 c423: x121 + x162 - z12 <= 1
 c424: x121 + x163 - z12 <= 1
 c425: x121 + x243 - z12 <= 1
 c426: x122 + x00 - z12 <= 1
 c427: x122 + x03 - z12 <= 1
 c428: x122 + x72 - z12 <= 1
 c429: x122 + x73 - z12 <= 1
 c430: x122 + x90 - z12 <= 1
 c431: x122 + x93 - z12 <= 1
 c432: x122 + x130 - z12 <= 1
 c433: x122 + x131 - z12 <= 1
 c434: x122 + x132 - z12 <= 1
 c435: x122 + x133 - z12 <= 1
 c436: x122 + x162 - z12 <= 1
 c437: x122 + x163 - z12 <= 1
 c438: x123 + x73 - z12 <= 1
 c439: x123 + x130 - z12 <= 1
 c440: x123 + x133 - z12 <= 1
 c441: x123 + x163 - z12 <= 1
 c442: x130 + x00 - z13 <= 1
 c443: x130 + x03 - z13 <= 1
 c444: x130 + x73 - z13 <= 1
 c445: x130 + x90 - z13 <= 1
 c446: x130 + x93 - z13 <= 1
 c447: x130 + x120 - z13 <= 1
 c448: x130 + x121 - z13 <= 1
 c449: x130 + x122 - z13 <= 1
 c450: x130 + x123 - z13 <= 1
 c451: x130 + x162 - z13 <= 1
 c452: x130 + x163 - z13 <= 1
 c453: x131 + x00 - z13 <= 1
 c454: x131 + x01 - z13 <= 1
 c455: x131 + x02 - z13 <= 1
 c456: x131 + x03 - z13 <= 1
 c457: x131 + x10 - z13 <= 1
 c458: x131 + x72 - z13 <= 1
 c459: x131 + x73 - z13 <= 1
 c460: x131 + x90 - z13 <= 1
 c461: x131 + x91 - z13 <= 1
 c462: x131 + x92 - z13 <= 1
 c463: x131 + x93 - z13 <= 1
 c464: x131 + x100 - z13 <= 1
 c465: x131 + x121 - z13 <= 1
 c466: x131 + x122 - z13 <= 1
 c467: x131 + x162 - z13 <= 1
 c468: x132 + x02 - z13 <= 1
 c469: x132 + x03 - z13 <= 1
 c470: x132 + x10 - z13 <= 1
 c471: x132 + x13 - z13 <= 1
 c472: x132 + x41 - z13 <= 1
 c473: x132 + x92 - z13 <= 1
 c474: x132 + x93 - z13 <= 1
 c475: x132 + x100 - z13 <= 1
 c476: x132 + x103 - z13 <= 1
 c477: x132 + x122 - z13 <= 1
 c478: x132 + x151 - z13 <= 1
 c479: x133 + x03 - z13 <= 1
 c480: x133 + x40 - z13 <= 1
 c481: x133 + x41 - z13 <= 1
 c482: x133 + x93 - z13 <= 1
 c483: x133 + x122 - z13 <= 1
 c484: x133 + x123 - z13 <= 1
 c485: x133 + x150 - z13 <= 1
 c486: x133 + x151 - z13 <= 1
 c487: x140 + x212 - z14 <= 1
 c488: x140 + x213 - z14 <= 1
 c489: x141 + x80 - z14 <= 1
 c490: x141 + x83 - z14 <= 1
 c491: x141 + x212 - z14 <= 1
 c492: x142 + x83 - z14 <= 1
 c493: x142 + x181 - z14 <= 1
 c494: x142 + x201 - z14 <= 1
 c495: x142 + x220 - z14 <= 1
 c496: x142 + x221 - z14 <= 1
 c497: x142 + x230 - z14 <= 1
 c498: x142 + x231 - z14 <= 1
 c499: x143 + x180 - z14 <= 1
 c500: x143 + x181 - z14 <= 1
 c501: x143 + x200 - z14 <= 1
 c502: x143 + x201 - z14 <= 1
 c503: x143 + x220 - z14 <= 1
 c504: x143 + x230 - z14 <= 1
 c505: x150 + x40 - z15 <= 1
 c506: x150 + x43 - z15 <= 1
 c507: x150 + x133 - z15 <= 1
 c508: x151 + x40 - z15 <= 1
 c509: x151 + x41 - z15 <= 1
 c510: x151 + x42 - z15 <= 1
 c511: x151 + x43 - z15 <= 1
 c512: x151 + x93 - z15 <= 1
 c513: x151 + x132 - z15 <= 1
 c514: x151 + x133 - z15 <= 1
 c515: x152 + x42 - z15 <= 1
 c516: x152 + x43 - z15 <= 1
 c517: x153 + x43 - z15 <= 1
 c518: x160 + x23 - z16 <= 1
 c519: x160 + x70 - z16 <= 1
 c520: x160 + x73 - z16 <= 1
 c521: x160 + x120 - z16 <= 1
 c522: x160 + x121 - z16 <= 1
 c523: x160 + x183 - z16 <= 1
 c524: x160 + x203 - z16 <= 1
 c525: x161 + x00 - z16 <= 1
 c526: x161 + x22 - z16 <= 1
 c527: x161 + x23 - z16 <= 1
 c528: x161 + x70 - z16 <= 1
 c529: x161 + x71 - z16 <= 1
 c530: x161 + x72 - z16 <= 1
 c531: x161 + x73 - z16 <= 1
 c532: x161 + x90 - z16 <= 1
 c533: x161 + x121 - z16 <= 1
 c534: x161 + x182 - z16 <= 1
 c535: x161 + x183 - z16 <= 1
 c536: x161 + x202 - z16 <= 1
 c537: x161 + x203 - z16 <= 1
 c538: x161 + x243 - z16 <= 1
 c539: x162 + x00 - z16 <= 1
 c540: x162 + x03 - z16 <= 1
 c541: x162 + x72 - z16 <= 1
 c542: x162 + x73 - z16 <= 1
 c543: x162 + x90 - z16 <= 1
 c544: x162 + x93 - z16 <= 1
 c545: x162 + x121 - z16 <= 1
 c546: x162 + x122 - z16 <= 1
 c547: x162 + x130 - z16 <= 1
 c548: x162 + x131 - z16 <= 1
 c549: x163 + x73 - z16 <= 1
 c550: x163 + x120 - z16 <= 1
 c551: x163 + x121 - z16 <= 1
 c552: x163 + x122 - z16 <= 1
 c553: x163 + x123 - z16 <= 1
 c554: x163 + x130 - z16 <= 1
 c555: x170 + x30 - z17 <= 1
 c556: x170 + x31 - z17 <= 1
 c557: x170 + x50 - z17 <= 1
 c558: x170 + x51 - z17 <= 1
 c559: x170 + x52 - z17 <= 1
 c560: x170 + x53 - z17 <= 1
 c561: x171 + x31 - z17 <= 1
 c562: x171 + x51 - z17 <= 1
 c563: x171 + x52 - z17 <= 1
 c564: x172 + x31 - z17 <= 1
 c565: x172 + x32 - z17 <= 1
 c566: x172 + x52 - z17 <= 1
 c567: x173 + x30 - z17 <= 1
 c568: x173 + x31 - z17 <= 1
 c569: x173 + x32 - z17 <= 1
 c570: x173 + x33 - z17 <= 1
 c571: x173 + x52 - z17 <= 1
 c572: x173 + x53 - z17 <= 1
 c573: x180 + x20 - z18 <= 1
 c574: x180 + x21 - z18 <= 1
 c575: x180 + x143 - z18 <= 1
 c576: x180 + x200 - z18 <= 1
 c577: x180 + x203 - z18 <= 1
 c578: x181 + x21 - z18 <= 1
 c579: x181 + x83 - z18 <= 1
 c580: x181 + x142 - z18 <= 1
 c581: x181 + x143 - z18 <= 1
 c582: x181 + x200 - z18 <= 1
 c583: x181 + x201 - z18 <= 1
 c584: x181 + x202 - z18 <= 1
 c585: x181 + x203 - z18 <= 1
 c586: x181 + x220 - z18 <= 1
 c587: x181 + x230 - z18 <= 1
 c588: x181 + x233 - z18 <= 1
 c589: x181 + x240 - z18 <= 1
 c590: x182 + x21 - z18 <= 1
 c591: x182 + x22 - z18 <= 1
 c592: x182 + x70 - z18 <= 1
 c593: x182 + x71 - z18 <= 1
 c594: x182 + x161 - z18 <= 1
 c595: x182 + x202 - z18 <= 1
 c596: x182 + x203 - z18 <= 1
 c597: x182 + x220 - z18 <= 1
 c598: x182 + x223 - z18 <= 1
 c599: x182 + x233 - z18 <= 1
 c600: x182 + x240 - z18 <= 1
 c601: x182 + x243 - z18 <= 1
 c602: x183 + x20 - z18 <= 1
 c603: x183 + x21 - z18 <= 1
 c604: x183 + x22 - z18 <= 1
 c605: x183 + x23 - z18 <= 1
 c606: x183 + x70 - z18 <= 1
 c607: x183 + x160 - z18 <= 1
 c608: x183 + x161 - z18 <= 1
 c609: x183 + x203 - z18 <= 1
 c610: x190 + x01 - z19 <= 1
 c611: x190 + x02 - z19 <= 1
 c612: x190 + x10 - z19 <= 1
 c613: x190 + x11 - z19 <= 1
 c614: x190 + x72 - z19 <= 1
 c615: x190 + x91 - z19 <= 1
 c616: x190 + x92 - z19 <= 1
 c617: x190 + x100 - z19 <= 1
 c618: x190 + x101 - z19 <= 1
 c619: x191 + x11 - z19 <= 1
 c620: x191 + x101 - z19 <= 1
 c621: x192 + x11 - z19 <= 1
 c622: x192 + x12 - z19 <= 1
 c623: x192 + x60 - z19 <= 1
 c624: x192 + x61 - z19 <= 1
 c625: x192 + x101 - z19 <= 1
 c626: x192 + x102 - z19 <= 1
 c627: x193 + x02 - z19 <= 1
 c628: x193 + x10 - z19 <= 1
 c629: x193 + x11 - z19 <= 1
 c630: x193 + x12 - z19 <= 1
 c631: x193 + x13 - z19 <= 1
 c632: x193 + x60 - z19 <= 1
 c633: x193 + x92 - z19 <= 1
 c634: x193 + x100 - z19 <= 1
 c635: x193 + x101 - z19 <= 1
 c636: x193 + x102 - z19 <= 1
 c637: x193 + x103 - z19 <= 1
 c638: x200 + x20 - z20 <= 1
 c639: x200 + x21 - z20 <= 1
 c640: x200 + x143 - z20 <= 1
 c641: x200 + x180 - z20 <= 1
 c642: x200 + x181 - z20 <= 1
 c643: x200 + x230 - z20 <= 1
 c644: x200 + x233 - z20 <= 1
 c645: x200 + x240 - z20 <= 1
 c646: x201 + x21 - z20 <= 1
 c647: x201 + x83 - z20 <= 1
 c648: x201 + x142 - z20 <= 1
 c649: x201 + x143 - z20 <= 1
 c650: x201 + x181 - z20 <= 1
 c651: x201 + x220 - z20 <= 1
 c652: x201 + x230 - z20 <= 1
 c653: x201 + x231 - z20 <= 1
 c654: x201 + x232 - z20 <= 1
 c655: x201 + x233 - z20 <= 1
 c656: x201 + x240 - z20 <= 1
 c657: x201 + x241 - z20 <= 1
 c658: x202 + x21 - z20 <= 1
 c659: x202 + x22 - z20 <= 1
 c660: x202 + x71 - z20 <= 1
 c661: x202 + x161 - z20 <= 1
 c662: x202 + x181 - z20 <= 1
 c663: x202 + x182 - z20 <= 1
 c664: x202 + x220 - z20 <= 1
 c665: x202 + x223 - z20 <= 1
 c666: x202 + x232 - z20 <= 1
 c667: x202 + x233 - z20 <= 1
 c668: x202 + x240 - z20 <= 1
 c669: x202 + x241 - z20 <= 1
 c670: x202 + x242 - z20 <= 1
 c671: x202 + x243 - z20 <= 1
 c672: x203 + x20 - z20 <= 1
 c673: x203 + x21 - z20 <= 1
 c674: x203 + x22 - z20 <= 1
 c675: x203 + x23 - z20 <= 1
 c676: x203 + x70 - z20 <= 1
 c677: x203 + x71 - z20 <= 1
 c678: x203 + x160 - z20 <= 1
 c679: x203 + x161 - z20 <= 1
 c680: x203 + x180 - z20 <= 1
 c681: x203 + x181 - z20 <= 1
 c682: x203 + x182 - z20 <= 1
 c683: x203 + x183 - z20 <= 1
 c684: x203 + x233 - z20 <= 1
 c685: x203 + x240 - z20 <= 1
 c686: x203 + x243 - z20 <= 1
 c687: x210 + x32 - z21 <= 1
 c688: x210 + x33 - z21 <= 1
 c689: x211 + x32 - z21 <= 1
 c690: x211 + x80 - z21 <= 1
 c691: x212 + x80 - z21 <= 1
 c692: x212 + x83 - z21 <= 1
 c693: x212 + x140 - z21 <= 1
 c694: x212 + x141 - z21 <= 1
 c695: x213 + x140 - z21 <= 1
 c696: x220 + x21 - z22 <= 1
 c697: x220 + x142 - z22 <= 1
 c698: x220 + x143 - z22 <= 1
 c699: x220 + x181 - z22 <= 1
 c700: x220 + x182 - z22 <= 1
 c701: x220 + x201 - z22 <= 1
 c702: x220 + x202 - z22 <= 1
 c703: x220 + x230 - z22 <= 1
 c704: x220 + x231 - z22 <= 1
 c705: x220 + x232 - z22 <= 1
 c706: x220 + x233 - z22 <= 1
 c707: x220 + x240 - z22 <= 1
 c708: x220 + x241 - z22 <= 1
 c709: x221 + x142 - z22 <= 1
 c710: x221 + x231 - z22 <= 1
 c711: x221 + x232 - z22 <= 1
 c712: x221 + x241 - z22 <= 1
 c713: x222 + x01 - z22 <= 1
 c714: x222 + x232 - z22 <= 1
 c715: x222 + x241 - z22 <= 1
 c716: x222 + x242 - z22 <= 1
 c717: x223 + x00 - z22 <= 1
 c718: x223 + x01 - z22 <= 1
 c719: x223 + x21 - z22 <= 1
 c720: x223 + x22 - z22 <= 1
 c721: x223 + x71 - z22 <= 1
 c722: x223 + x182 - z22 <= 1
 c723: x223 + x202 - z22 <= 1
 c724: x223 + x232 - z22 <= 1
 c725: x223 + x233 - z22 <= 1
 c726: x223 + x240 - z22 <= 1
 c727: x223 + x241 - z22 <= 1
 c728: x223 + x242 - z22 <= 1
 c729: x223 + x243 - z22 <= 1
 c730: x230 + x21 - z23 <= 1
 c731: x230 + x83 - z23 <= 1
 c732: x230 + x142 - z23 <= 1
 c733: x230 + x143 - z23 <= 1
 c734: x230 + x181 - z23 <= 1
 c735: x230 + x200 - z23 <= 1
 c736: x230 + x201 - z23 <= 1
 c737: x230 + x220 - z23 <= 1
 c738: x230 + x240 - z23 <= 1
 c739: x230 + x241 - z23 <= 1
 c740: x231 + x82 - z23 <= 1
 c741: x231 + x83 - z23 <= 1
 c742: x231 + x142 - z23 <= 1
 c743: x231 + x201 - z23 <= 1
 c744: x231 + x220 - z23 <= 1
 c745: x231 + x221 - z23 <= 1
 c746: x231 + x241 - z23 <= 1
 c747: x232 + x71 - z23 <= 1
 c748: x232 + x201 - z23 <= 1
 c749: x232 + x202 - z23 <= 1
 c750: x232 + x220 - z23 <= 1
 c751: x232 + x221 - z23 <= 1
 c752: x232 + x222 - z23 <= 1
 c753: x232 + x223 - z23 <= 1
 c754: x232 + x241 - z23 <= 1
 c755: x232 + x242 - z23 <= 1
 c756: x233 + x21 - z23 <= 1
 c757: x233 + x22 - z23 <= 1
 c758: x233 + x70 - z23 <= 1
 c759: x233 + x71 - z23 <= 1
 c760: x233 + x181 - z23 <= 1
 c761: x233 + x182 - z23 <= 1
 c762: x233 + x200 - z23 <= 1
 c763: x233 + x201 - z23 <= 1
 c764: x233 + x202 - z23 <= 1
 c765: x233 + x203 - z23 <= 1
 c766: x233 + x220 - z23 <= 1
 c767: x233 + x223 - z23 <= 1
 c768: x233 + x240 - z23 <= 1
 c769: x233 + x241 - z23 <= 1
 c770: x233 + x242 - z23 <= 1
 c771: x233 + x243 - z23 <= 1
 c772: x240 + x21 - z24 <= 1
 c773: x240 + x70 - z24 <= 1
 c774: x240 + x71 - z24 <= 1
 c775: x240 + x181 - z24 <= 1
 c776: x240 + x182 - z24 <= 1
 c777: x240 + x200 - z24 <= 1
 c778: x240 + x201 - z24 <= 1
 c779: x240 + x202 - z24 <= 1
 c780: x240 + x203 - z24 <= 1
 c781: x240 + x220 - z24 <= 1
 c782: x240 + x223 - z24 <= 1
 c783: x240 + x230 - z24 <= 1
 c784: x240 + x233 - z24 <= 1
 c785: x241 + x71 - z24 <= 1
 c786: x241 + x201 - z24 <= 1
 c787: x241 + x202 - z24 <= 1
 c788: x241 + x220 - z24 <= 1
 c789: x241 + x221 - z24 <= 1
 c790: x241 + x222 - z24 <= 1
 c791: x241 + x223 - z24 <= 1
 c792: x241 + x230 - z24 <= 1
 c793: x241 + x231 - z24 <= 1
 c794: x241 + x232 - z24 <= 1
 c795: x241 + x233 - z24 <= 1
 c796: x242 + x01 - z24 <= 1
 c797: x242 + x71 - z24 <= 1
 c798: x242 + x72 - z24 <= 1
 c799: x242 + x202 - z24 <= 1
 c800: x242 + x222 - z24 <= 1
 c801: x242 + x223 - z24 <= 1
 c802: x242 + x232 - z24 <= 1
 c803: x242 + x233 - z24 <= 1
 c804: x243 + x00 - z24 <= 1
 c805: x243 + x01 - z24 <= 1
 c806: x243 + x21 - z24 <= 1
 c807: x243 + x22 - z24 <= 1
 c808: x243 + x70 - z24 <= 1
 c809: x243 + x71 - z24 <= 1
 c810: x243 + x72 - z24 <= 1
 c811: x243 + x73 - z24 <= 1
 c812: x243 + x121 - z24 <= 1
 c813: x243 + x161 - z24 <= 1
 c814: x243 + x182 - z24 <= 1
 c815: x243 + x202 - z24 <= 1
 c816: x243 + x203 - z24 <= 1
 c817: x243 + x223 - z24 <= 1
 c818: x243 + x233 - z24 <= 1
Binary
 x00
 x01
 x02
 x03
 z0
 x10
 x11
 x12
 x13
 z1
 x20
 x21
 x22
 x23
 z2
 x30
 x31
 x32
 x33
 z3
 x40
 x41
 x42
 x43
 z4
 x50
 x51
 x52
 x53
 z5
 x60
 x61
 x62
 x63
 z6
 x70
 x71
 x72
 x73
 z7
 x80
 x81
 x82
 x83
 z8
 x90
 x91
 x92
 x93
 z9
 x100
 x101
 x102
 x103
 z10
 x110
 x111
 x112
 x113
 z11
 x120
 x121
 x122
 x123
 z12
 x130
 x131
 x132
 x133
 z13
 x140
 x141
 x142
 x143
 z14
 x150
 x151
 x152
 x153
 z15
 x160
 x161
 x162
 x163
 z16
 x170
 x171
 x172
 x173
 z17
 x180
 x181
 x182
 x183
 z18
 x190
 x191
 x192
 x193
 z19
 x200
 x201
 x202
 x203
 z20
 x210
 x211
 x212
 x213
 z21
 x220
 x221
 x222
 x223
 z22
 x230
 x231
 x232
 x233
 z23
 x240
 x241
 x242
 x243
 z24
End