sol/d25_07.sol
FO = 13
Solution:
2 3 0 3 0 0 2 1 2 0 3 3 0 3 1 3 2 1 3 2 1 3 2 0 3 
